GLPSOL: GLPK LP/MIP Solver, v4.55
Parameter(s) specified in the command line:
 -m tmp.mod
Reading model section from tmp.mod...
Reading data section from tmp.mod...
4397 lines were read
Generating obj...
Generating kirhoff...
Generating init_charge...
Generating batt_size...
Model has been successfully generated
GLPK Simplex Optimizer, v4.55
4581 rows, 7158 columns, 14760 non-zeros
Preprocessing...
3302 rows, 7021 columns, 14491 non-zeros
Scaling...
 A: min|aij| =  1.000e+00  max|aij| =  1.000e+00  ratio =  1.000e+00
Problem data seem to be well scaled
Constructing initial basis...
Size of triangular part is 2641
      0: obj =   0.000000000e+00  infeas =  9.990e+02 (661)
    500: obj =   8.000000000e+00  infeas =  4.330e+02 (421)
*   865: obj =   2.010000000e+02  infeas =  0.000e+00 (356)
*  1000: obj =   1.800000000e+02  infeas =  0.000e+00 (347)
*  1163: obj =   1.190000000e+02  infeas =  0.000e+00 (346)
OPTIMAL LP SOLUTION FOUND
Time used:   0.3 secs
Memory used: 14.3 Mb (14972509 bytes)
#OUTPUT:
119
-59 -7 -6 0 -8 0 0 0 0 -5 0 -1 1 -4 0 -1 0 0 -4 0 0 0 0 0 -8 0 0 0 0 0 0 0 0 0 0 -1 0 0 0 0 0 0 0 -26 0 -46 0 0 0 2 0 0 0 0 -4 0 0 -46 5 0 0 0 0 0 2 0 -1 0 0 0 0 0 0 0 0 0 0 0 0 0 0 0 0 0 0 1 0 0 0 0 0 0 0 0 0 0 0 0 0 0 -6 0 0 0 0 0 2 0 0 0 0 0 -9 0 0 0 0 0 0 0 0 0 0 0 0 0 0 0 0 2 0 -32 0 0 0 0 0 0 0 0 0 -25 0 0 0 0 0 0 0 0 0 0 0 0 0 0 0 0 0 0 0 -6 2 0 0 0 0 0 0 0 0 0 0 0 1 0 0 0 0 0 0 0 0 0 0 0 0 0 0 0 0 0 0 0 0 0 0 0 0 0 0 0 0 0 0 0 0 0 0 0 0 0 0 0 0 0 0 0 0 0 0 0 0 0 0 0 0 0 0 0 0 0 0 0 0 0 0 0 0 0 0 0 0 0 0 0 0 0 0 0 0 0 0 0 0 0 0 0 0 0 0 0 0 0 0 0 0 0 0 0 0 0 0 0 0 0 0 0 0 0 0 0 0 0 0 0 0 0 0 0 0 0 -5 0 0 0 0 0 0 0 0 0 0 0 0 0 0 0 0 0 0 0 0 0 0 0 0 0 0 0 0 1 0 0 0 0 0 -2 0 0 0 16 0 0 -2 0 0 7 0 0 0 -8 0 0 0 0 0 0 0 0 0 0 0 0 -2 2 0 0 0 0 0 0 0 -6 0 0 0 -1 1 0 0 0 0 0 0 0 0 0 0 0 0 0 0 0 0 0 0 0 0 0 5 0 0 0 0 0 0 0 0 0 0 5 0 0 0 0 0 0 0 0 0 0 0 0 0 0 0 0 0 0 0 0 0 0 0 0 0 0 0 0 0 0 0 0 0 0 0 0 0 0 0 0 0 0 0 0 0 0 0 0 0 0 0 0 0 0 0 0 0 0 0 0 0 0 0 0 0 0 0 0 0 0 0 0 0 0 0 0 0 0 0 0 0 
-16 -8 0 -8 -8 0 0 0 0 -9 0 -9 0 0 0 -1 0 0 0 0 0 0 0 0 -8 0 0 0 0 0 0 0 0 0 0 0 0 0 0 0 0 0 0 -26 0 0 0 0 0 0 0 0 0 0 1 0 0 0 5 0 0 0 0 0 0 0 0 0 0 0 0 0 0 0 0 0 0 0 0 0 0 0 0 0 0 0 0 -52 0 0 0 -8 0 0 0 0 0 0 0 0 0 0 0 0 0 0 0 0 0 0 0 0 -4 0 0 0 0 0 0 0 0 0 0 0 0 0 0 0 0 0 0 -14 0 0 0 0 -1 0 1 0 0 -8 0 0 0 0 0 0 0 0 0 0 0 0 0 0 0 0 0 0 0 0 0 0 0 0 0 0 0 0 0 0 0 0 0 0 0 0 0 0 0 0 0 0 0 0 0 0 0 0 0 0 0 0 0 0 0 0 0 0 0 0 0 0 0 0 0 0 0 0 0 0 0 0 0 0 0 0 0 0 0 0 0 0 0 0 0 0 0 0 0 -52 0 0 0 0 0 0 0 0 0 -52 0 0 0 0 0 0 0 0 0 0 0 0 0 0 0 0 0 0 0 0 0 0 0 0 0 0 0 0 0 0 0 0 0 0 0 -52 0 0 0 0 0 0 0 0 0 0 0 0 0 0 -5 0 0 0 0 0 0 0 0 0 0 0 0 0 0 0 0 0 0 0 0 0 0 0 0 0 0 0 0 0 0 0 0 0 0 0 0 0 0 18 -8 0 -1 0 0 6 0 0 6 -5 0 0 0 0 0 0 0 0 0 0 0 0 0 0 0 0 0 0 0 0 0 6 0 0 0 0 0 0 0 0 0 0 -8 0 0 0 0 0 0 0 0 0 0 0 0 0 0 0 5 0 0 0 0 0 0 0 0 0 0 5 0 0 0 0 0 0 0 0 0 0 0 0 0 0 0 0 0 0 0 0 0 0 0 0 0 0 0 0 0 0 0 0 0 0 0 0 0 0 0 0 0 0 0 0 0 0 0 0 0 0 0 0 0 0 0 0 0 0 0 0 0 0 0 0 0 0 0 0 0 0 0 0 0 0 0 0 0 0 0 0 0 
-32 -8 -6 0 -8 0 0 0 0 -21 0 -12 0 0 0 0 0 0 0 0 0 0 0 0 -8 0 0 0 0 0 0 0 0 0 0 0 0 0 0 0 0 0 0 -26 0 -18 0 0 0 0 0 0 0 0 0 0 0 -18 5 0 0 0 0 0 0 0 0 0 0 0 9 0 0 0 0 0 0 0 0 0 0 0 0 0 0 0 0 0 0 0 0 -9 0 0 0 0 0 0 0 0 -6 0 0 0 0 0 0 0 0 0 0 0 -5 0 0 0 0 0 0 0 0 0 0 0 0 0 0 0 0 0 0 -4 0 0 0 0 0 0 0 0 0 0 0 0 0 0 0 0 0 0 0 0 0 0 0 0 0 0 0 0 0 -6 0 0 0 0 0 0 0 0 0 0 0 0 0 0 0 0 0 0 0 0 0 0 0 0 0 0 0 0 0 0 0 0 0 0 0 0 0 0 0 0 0 0 0 0 0 0 0 0 0 0 0 0 0 0 0 0 0 0 0 0 0 0 0 0 0 0 0 0 0 0 0 0 0 0 0 0 0 0 0 0 0 0 0 0 0 0 0 0 0 0 0 0 0 0 0 0 0 0 0 0 0 0 0 0 0 0 0 0 0 0 0 0 0 0 0 0 0 0 0 0 0 0 0 0 0 0 0 0 0 0 -5 0 0 0 0 0 0 0 0 0 0 0 0 0 0 0 0 0 0 0 0 0 0 0 0 0 0 0 0 0 0 -9 0 0 0 0 0 0 0 18 -9 0 0 0 0 4 0 0 0 -8 0 0 0 0 0 0 0 0 0 0 0 0 0 0 0 0 0 0 0 0 0 -6 0 0 0 -3 0 0 0 0 0 0 0 0 0 0 0 0 0 0 0 0 0 0 0 0 0 0 5 0 0 0 0 0 0 0 0 0 0 5 0 0 0 0 0 0 0 0 0 0 0 0 0 0 0 0 0 0 0 0 0 0 0 0 0 0 0 0 0 0 0 0 0 0 0 0 0 0 0 0 0 0 0 0 0 0 0 0 0 0 0 0 0 0 0 0 0 0 0 0 0 0 0 0 0 0 0 0 0 0 0 0 0 0 0 0 0 0 0 0 0 
-59 0 0 -1 0 0 0 -1 2 -33 -1 -12 0 -6 0 -1 -1 -9 -5 -5 0 1 -2 0 0 -2 -2 0 0 0 0 0 -1 0 0 -5 0 0 0 0 4 -3 0 0 0 -58 1 0 0 1 -2 0 0 0 -4 0 0 41 0 0 0 0 0 0 0 0 -5 0 0 0 2 0 0 0 -4 0 0 -4 0 0 0 -3 0 0 -2 0 0 0 0 -1 0 -1 -1 2 0 1 5 0 0 0 0 11 0 0 0 0 1 0 -3 -4 0 0 -6 0 -3 0 0 -1 0 0 0 0 0 -3 0 0 0 -5 0 4 1 25 -6 0 0 0 -1 0 0 0 0 16 0 -2 0 0 -6 0 0 -1 0 0 0 0 0 0 0 -3 0 0 0 0 1 1 0 0 -2 0 0 1 0 1 0 0 0 0 0 0 0 -7 0 0 1 0 0 -16 0 0 0 0 0 0 1 1 0 0 2 0 0 -3 -4 0 0 0 -4 0 0 0 0 0 0 -1 0 0 0 0 0 0 0 0 0 3 -1 0 0 0 0 0 0 0 0 0 1 0 0 0 0 0 0 -11 0 0 -16 0 0 0 0 0 -1 0 0 0 -1 0 0 0 0 -1 0 0 0 0 0 0 2 0 0 0 0 0 1 0 0 0 2 0 0 0 0 0 0 0 0 0 0 0 0 0 0 0 0 0 0 0 0 0 0 0 0 0 -4 0 0 0 0 0 0 6 0 0 0 0 0 0 0 0 0 2 0 -1 0 0 0 -2 0 1 0 -2 1 0 0 -2 -1 3 1 3 0 -9 0 0 0 -8 0 0 2 0 0 0 0 0 7 0 0 0 -5 4 0 0 1 5 4 0 4 0 0 1 0 -7 0 1 0 0 -1 11 16 0 0 0 1 0 0 0 0 1 1 0 -2 0 0 -1 0 -2 0 0 0 0 0 0 0 6 -6 0 0 0 0 4 -6 0 -1 1 0 0 0 0 0 0 0 0 0 0 0 0 0 0 0 0 0 0 0 0 0 0 0 0 0 0 0 0 0 0 0 0 0 0 0 0 0 0 0 0 0 0 0 0 0 0 0 0 0 0 0 0 0 0 0 0 0 0 0 0 0 0 0 0 0 0 0 0 0 0 0 0 0 
-59 -25 -7 -27 -1 0 0 -3 -2 -53 0 -12 -4 5 0 -1 1 3 4 1 2 3 2 0 2 -1 0 0 0 0 0 -2 0 0 0 -5 0 0 0 0 -4 1 0 26 0 0 3 0 0 0 0 0 0 0 4 0 0 0 -3 2 0 0 0 0 0 0 -5 0 0 0 -31 0 3 0 3 0 0 -4 0 0 0 0 0 0 0 -6 0 0 0 0 0 9 0 0 0 -4 5 0 0 -3 -5 -15 -53 0 0 0 0 -53 0 0 -2 0 7 0 3 0 0 1 0 2 0 0 0 0 0 -2 0 -35 2 4 1 -5 0 0 0 0 0 3 5 0 0 -7 0 -2 0 0 -4 0 0 0 0 0 0 0 0 0 0 -1 0 0 0 -5 3 0 0 0 0 0 0 0 0 3 -3 0 -6 3 0 0 0 0 0 0 -4 0 0 10 0 0 0 1 0 0 1 -4 -2 0 0 -3 -17 1 -5 0 0 0 0 9 0 -20 0 0 0 -1 0 0 0 0 0 0 0 0 0 -2 1 0 0 3 0 0 0 3 0 0 1 0 0 0 0 0 0 15 0 0 10 0 0 0 0 0 -2 2 0 0 0 0 0 0 0 0 0 0 0 0 0 0 0 0 0 0 0 0 0 0 3 0 2 0 0 0 0 -2 0 0 0 0 0 -20 0 -13 0 0 0 -3 0 0 0 0 0 0 0 0 -7 0 0 0 0 0 0 5 0 0 0 0 0 0 0 0 0 -2 0 -3 0 -4 0 -52 0 0 0 0 0 1 0 -18 9 -3 2 5 0 -2 0 0 0 -8 0 0 0 0 0 -20 0 0 0 1 -1 0 0 4 0 2 3 1 7 0 -4 -3 0 1 0 -5 14 -1 3 -3 -1 -15 -10 0 0 0 -1 3 -2 0 0 0 0 0 0 30 -17 0 -3 -2 2 2 0 0 -57 0 13 7 -4 0 0 0 0 7 -5 0 -2 2 0 0 0 0 0 0 0 0 0 0 0 0 0 0 0 0 0 0 0 0 0 0 0 0 0 0 0 0 0 0 0 0 0 0 0 0 0 0 0 0 0 0 0 0 0 0 0 0 0 0 0 0 0 0 0 0 0 0 0 0 0 0 0 0 0 0 0 0 0 0 0 0 0 
-31 0 0 0 0 0 0 0 0 -3 0 -2 0 0 0 -1 0 -1 0 -1 -1 0 0 0 0 0 -1 0 0 0 0 0 0 0 0 -5 0 0 0 0 0 0 0 0 0 -31 0 0 0 4 0 0 0 0 0 0 0 -31 0 -1 0 0 0 0 0 0 -5 0 0 0 0 0 0 0 0 0 0 -4 0 0 0 0 0 0 0 0 0 0 0 0 0 0 0 0 0 0 0 0 0 0 0 11 0 0 0 0 4 0 0 0 0 0 0 0 0 0 0 0 0 -1 0 0 0 0 0 0 0 0 0 4 0 -31 0 0 0 0 0 0 0 0 0 -31 0 0 0 0 -7 0 0 0 0 0 0 0 0 0 0 0 0 0 0 0 4 0 0 0 0 0 0 0 0 0 0 0 0 0 0 0 0 0 0 0 0 0 0 -16 0 0 0 0 0 0 1 0 0 0 0 0 0 0 -5 0 0 0 0 0 0 -4 0 0 0 -1 0 -1 0 0 0 0 0 0 0 0 -1 0 0 0 0 0 0 0 0 0 0 0 0 0 0 0 0 -11 0 0 -16 0 0 0 0 0 0 0 0 0 0 0 0 0 0 0 0 0 0 0 0 0 0 0 0 0 0 0 0 0 0 0 0 0 0 0 0 0 0 0 0 0 0 -4 0 0 0 0 0 0 0 0 0 0 0 0 0 0 -5 0 0 0 0 0 0 5 0 0 0 0 0 0 0 0 0 0 0 0 0 0 0 0 0 0 0 -4 0 0 0 0 0 0 1 0 0 0 0 0 0 -8 0 0 0 0 0 0 0 0 0 0 1 0 -4 4 0 0 0 0 5 0 0 0 0 1 1 -4 4 1 0 0 0 11 -53 0 0 0 0 0 0 0 0 0 0 0 0 0 0 0 0 0 0 0 0 0 4 0 0 7 -7 0 0 0 0 5 -5 0 0 0 0 0 0 0 0 0 0 0 0 0 0 0 0 0 0 0 0 0 0 0 0 0 0 0 0 0 0 0 0 0 0 0 0 0 0 0 0 0 0 0 0 0 0 0 0 0 0 0 0 0 0 0 0 0 0 0 0 0 0 0 0 0 0 0 0 0 0 0 0 0 0 0 0 
0 0 0 0 0 0 0 0 0 0 0 0 0 0 0 0 0 0 0 0 0 0 0 0 0 0 0 0 0 0 0 0 0 0 0 0 0 0 0 0 0 0 0 0 0 0 0 0 0 0 0 0 0 0 0 0 0 0 0 0 0 0 0 0 0 0 0 0 0 0 0 0 0 0 0 0 0 0 0 0 0 0 0 0 0 0 0 0 0 0 0 0 0 0 0 0 0 0 0 0 0 0 0 0 0 0 0 0 0 0 0 0 0 0 0 0 0 0 0 0 0 0 0 0 0 0 0 0 0 0 0 0 0 0 0 0 0 0 0 0 0 0 0 0 0 0 0 0 0 0 0 0 0 0 0 0 0 0 0 0 0 0 0 0 0 0 0 0 0 0 0 0 0 0 0 0 0 0 0 0 0 0 0 0 0 0 0 0 0 0 0 0 0 0 0 0 0 0 0 0 0 0 0 0 0 0 0 0 0 0 0 0 0 0 0 0 0 0 0 0 0 0 0 0 0 0 0 0 0 0 0 0 0 0 0 0 0 0 0 0 0 0 0 0 0 0 0 0 0 0 0 0 0 0 0 0 0 0 0 0 0 0 0 0 0 0 0 0 0 0 0 0 0 0 0 0 0 0 0 0 0 0 0 0 0 0 0 0 0 0 0 0 0 0 0 0 0 0 0 0 0 0 0 0 0 0 0 0 0 0 0 0 0 0 0 0 0 0 0 0 0 0 0 0 0 0 0 0 0 0 0 0 0 0 0 0 0 0 0 0 0 0 0 0 0 0 0 0 0 0 0 0 0 0 0 0 0 0 0 0 0 0 0 0 0 0 0 0 0 0 0 0 0 0 0 0 0 0 0 0 0 0 0 0 0 0 0 0 0 0 0 0 0 0 0 0 0 0 0 0 0 0 0 0 0 0 0 0 0 0 0 0 0 0 0 0 0 0 0 0 0 0 0 0 0 0 0 0 0 0 0 0 0 0 0 0 0 0 0 0 0 0 0 0 0 0 0 0 0 0 0 0 0 0 0 0 0 0 0 0 0 0 0 0 0 0 0 0 0 0 0 0 0 0 0 0 0 0 0 0 0 0 0 
#OUTPUT END
Model has been successfully processed
